(set-info :smt-lib-version 2.6)
(set-info :category "crafted")
(set-logic QF_FFA)
(define-sort FF0 () (_ FiniteField 52435875175126190479447740508185965837690552500527637822603658699938581184513))
(declare-fun out_alt () FF0)
(declare-fun _29_alt () FF0)
(declare-fun _22_alt () FF0)
(declare-fun _28_alt () FF0)
(declare-fun _2_alt () FF0)
(declare-fun _27_alt () FF0)
(declare-fun _7_alt () FF0)
(declare-fun _26_alt () FF0)
(declare-fun _6_alt () FF0)
(declare-fun _25_alt () FF0)
(declare-fun _0_alt () FF0)
(declare-fun _24_alt () FF0)
(declare-fun _9_alt () FF0)
(declare-fun _1_alt () FF0)
(declare-fun _20_alt () FF0)
(declare-fun _19_alt () FF0)
(declare-fun _3_alt () FF0)
(declare-fun _14_alt () FF0)
(declare-fun _13_alt () FF0)
(declare-fun _4_alt () FF0)
(declare-fun _5_alt () FF0)
(declare-fun out () FF0)
(declare-fun _29 () FF0)
(declare-fun _22 () FF0)
(declare-fun _28 () FF0)
(declare-fun _2 () FF0)
(declare-fun _27 () FF0)
(declare-fun _7 () FF0)
(declare-fun _26 () FF0)
(declare-fun _6 () FF0)
(declare-fun _25 () FF0)
(declare-fun _0 () FF0)
(declare-fun _24 () FF0)
(declare-fun _9 () FF0)
(declare-fun _1 () FF0)
(declare-fun _20 () FF0)
(declare-fun _19 () FF0)
(declare-fun _3 () FF0)
(declare-fun _14 () FF0)
(declare-fun _13 () FF0)
(declare-fun _4 () FF0)
(declare-fun _5 () FF0)
(assert 
  (let ((let0 out_alt))
  (let ((let1 _29_alt))
  (let ((let2 (= let1 let0)))
  (let ((let3 _22_alt))
  (let ((let4 _28_alt))
  (let ((let5 (ff.mul let4 let3)))
  (let ((let6 (= let5 let1)))
  (let ((let7 _2_alt))
  (let ((let8 _27_alt))
  (let ((let9 (ff.mul let8 let7)))
  (let ((let10 (= let9 let4)))
  (let ((let11 _7_alt))
  (let ((let12 _26_alt))
  (let ((let13 (ff.mul let12 let11)))
  (let ((let14 (= let13 let8)))
  (let ((let15 (as ff1 FF0)))
  (let ((let16 (as ff52435875175126190479447740508185965837690552500527637822603658699938581184512 FF0)))
  (let ((let17 _6_alt))
  (let ((let18 (ff.mul let17 let16)))
  (let ((let19 (ff.add let18 let15)))
  (let ((let20 _25_alt))
  (let ((let21 (ff.mul let20 let19)))
  (let ((let22 (= let21 let12)))
  (let ((let23 _0_alt))
  (let ((let24 _24_alt))
  (let ((let25 (ff.mul let24 let23)))
  (let ((let26 (= let25 let20)))
  (let ((let27 _9_alt))
  (let ((let28 _1_alt))
  (let ((let29 (ff.mul let28 let27)))
  (let ((let30 (= let29 let24)))
  (let ((let31 _20_alt))
  (let ((let32 _19_alt))
  (let ((let33 (ff.add let32 let31)))
  (let ((let34 (ff.mul let33 let27)))
  (let ((let35 (= let34 let3)))
  (let ((let36 _3_alt))
  (let ((let37 (ff.mul let36 let16)))
  (let ((let38 (ff.add let37 let15)))
  (let ((let39 (ff.mul let38 let11)))
  (let ((let40 (= let39 let31)))
  (let ((let41 _14_alt))
  (let ((let42 _13_alt))
  (let ((let43 (ff.add let42 let41)))
  (let ((let44 (ff.mul let36 let43)))
  (let ((let45 (= let44 let32)))
  (let ((let46 _4_alt))
  (let ((let47 (ff.mul let7 let46)))
  (let ((let48 (= let47 let42)))
  (let ((let49 (ff.mul let27 let16)))
  (let ((let50 (ff.add let28 let36 let49)))
  (let ((let51 (ff.mul let28 let36)))
  (let ((let52 (= let51 let50)))
  (let ((let53 (ff.mul let11 let11)))
  (let ((let54 (= let53 let11)))
  (let ((let55 (ff.mul let17 let17)))
  (let ((let56 (= let55 let17)))
  (let ((let57 _5_alt))
  (let ((let58 (ff.mul let57 let57)))
  (let ((let59 (= let58 let57)))
  (let ((let60 (ff.mul let46 let46)))
  (let ((let61 (= let60 let46)))
  (let ((let62 (ff.mul let36 let36)))
  (let ((let63 (= let62 let36)))
  (let ((let64 (ff.mul let7 let7)))
  (let ((let65 (= let64 let7)))
  (let ((let66 (ff.mul let28 let28)))
  (let ((let67 (= let66 let28)))
  (let ((let68 (ff.mul let23 let23)))
  (let ((let69 (= let68 let23)))
  (let ((let70 (and let69 let67 let65 let63 let61 let59 let56 let54 let52 let48 let45 let40 let35 let30 let26 let22 let14 let10 let6 let2)))
  (let ((let71 out))
  (let ((let72 _29))
  (let ((let73 (= let72 let71)))
  (let ((let74 _22))
  (let ((let75 _28))
  (let ((let76 (ff.mul let75 let74)))
  (let ((let77 (= let76 let72)))
  (let ((let78 _2))
  (let ((let79 _27))
  (let ((let80 (ff.mul let79 let78)))
  (let ((let81 (= let80 let75)))
  (let ((let82 _7))
  (let ((let83 _26))
  (let ((let84 (ff.mul let83 let82)))
  (let ((let85 (= let84 let79)))
  (let ((let86 _6))
  (let ((let87 (ff.mul let86 let16)))
  (let ((let88 (ff.add let87 let15)))
  (let ((let89 _25))
  (let ((let90 (ff.mul let89 let88)))
  (let ((let91 (= let90 let83)))
  (let ((let92 _0))
  (let ((let93 _24))
  (let ((let94 (ff.mul let93 let92)))
  (let ((let95 (= let94 let89)))
  (let ((let96 _9))
  (let ((let97 _1))
  (let ((let98 (ff.mul let97 let96)))
  (let ((let99 (= let98 let93)))
  (let ((let100 _20))
  (let ((let101 _19))
  (let ((let102 (ff.add let101 let100)))
  (let ((let103 (ff.mul let102 let96)))
  (let ((let104 (= let103 let74)))
  (let ((let105 _3))
  (let ((let106 (ff.mul let105 let16)))
  (let ((let107 (ff.add let106 let15)))
  (let ((let108 (ff.mul let107 let82)))
  (let ((let109 (= let108 let100)))
  (let ((let110 _14))
  (let ((let111 _13))
  (let ((let112 (ff.add let111 let110)))
  (let ((let113 (ff.mul let105 let112)))
  (let ((let114 (= let113 let101)))
  (let ((let115 _4))
  (let ((let116 (ff.mul let78 let115)))
  (let ((let117 (= let116 let111)))
  (let ((let118 (ff.mul let96 let16)))
  (let ((let119 (ff.add let97 let105 let118)))
  (let ((let120 (ff.mul let97 let105)))
  (let ((let121 (= let120 let119)))
  (let ((let122 (ff.mul let82 let82)))
  (let ((let123 (= let122 let82)))
  (let ((let124 (ff.mul let86 let86)))
  (let ((let125 (= let124 let86)))
  (let ((let126 _5))
  (let ((let127 (ff.mul let126 let126)))
  (let ((let128 (= let127 let126)))
  (let ((let129 (ff.mul let115 let115)))
  (let ((let130 (= let129 let115)))
  (let ((let131 (ff.mul let105 let105)))
  (let ((let132 (= let131 let105)))
  (let ((let133 (ff.mul let78 let78)))
  (let ((let134 (= let133 let78)))
  (let ((let135 (ff.mul let97 let97)))
  (let ((let136 (= let135 let97)))
  (let ((let137 (ff.mul let92 let92)))
  (let ((let138 (= let137 let92)))
  (let ((let139 (and let138 let136 let134 let132 let130 let128 let125 let123 let121 let117 let114 let109 let104 let99 let95 let91 let85 let81 let77 let73)))
  (let ((let140 (= let71 let0)))
  (let ((let141 (not let140)))
  (let ((let142 (= let126 let57)))
  (let ((let143 (= let97 let28)))
  (let ((let144 (= let115 let46)))
  (let ((let145 (= let78 let7)))
  (let ((let146 (= let82 let11)))
  (let ((let147 (= let105 let36)))
  (let ((let148 (= let86 let17)))
  (let ((let149 (= let92 let23)))
  (let ((let150 (and let149 let148 let147 let146 let145 let144 let143 let142)))
  (let ((let151 (and let150 let141 let139 let70)))
  let151
))))))))))))))))))))))))))))))))))))))))))))))))))))))))))))))))))))))))))))))))))))))))))))))))))))))))))))))))))))))))))))))))))))))))))))))))))))))))
)
(check-sat)
